p cnf 23 8
a 1 0
e 2 0
a 3 0
e 4 0
a 5 0
e 6 7 8 0
a 9 0
e 10 11 12 13 0
a 14 15 0
e 16 0
a 17 18 0
e 19 20 0
a 21 22 23 0
-22 -3 10 -14 0
16 -7 -11 -17 10 0
-8 -19 -2 -6 7 0
-15 11 -7 9 0
-22 -13 -15 0
15 4 -14 -10 5 0
18 14 16 -13 2 0
-21 8 -16 11 -23 0
